M+/Instances/S1-5-M+/S1-15-5-3-l-M+.txt
     100       5    0.15
       3       3       2       1       2       0      16      13       2      14       3
       3       1       2       1       2       4       9      10       9       2       2
       3       3       1       2       3      10       4      10      16       1       2
       2       2       3       1       1       4      15       3       3       7       3
       2       2       1       3       2       6      13       2       5      13       2
       2       3       3       3       2       3       7       5      11       7       3
       1       2       1       2       1       6      11      11      14      13       2
       2       3       1       2       3      15       6      12       9       2       2
       2       1       1       3       3      13      14      13       5       6       3
       3       3       2       3       3       3      13       4       7      11       3
       3       3       3       1       2      13      16       0       5       5       3
       3       3       1       1       3      15       0       8       1       1       2
       3       2       1       1       3       2      15      14       2       5       2
       3       2       3       1       3      12       4       7       5      11       3
       2       3       2       3       1      16       3       1      16      12       2
       2       1       2       2       3       6      11      13      10      11       2
       3       3       1       2       1       8      11      16      16      11       3
       1       3       3       2       2       9      16      15       6       0       2
       1       2       2       1       1      13      11      16       3       3       2
       2       3       3       2       1       6      13       9       5      15       2
       3       1       3       2       1      10      10       8      11      15       2
       3       2       2       1       1      15      10      11      10       4       2
       2       3       2       1       2       2       6      16      16       6       2
       2       3       1       2       2       1       5       6      15       0       2
       3       3       3       3       1      12      12       5      16      14       3
       1       2       3       3       1       3       8      12      13       6       2
       1       3       1       1       2       2       7      10       1      16       2
       1       3       1       3       1      12       6       8       9       2       3
       3       1       2       1       3       2       6      16      13       1       3
       1       1       1       2       2       7      10       9      12       7       2
       2       1       1       3       2       3      12       2      15      14       2
       2       2       3       2       2      15       5      15       2       1       2
       3       1       3       1       1       4      13       1      12       6       2
       1       2       1       3       1       0       5       7      14       7       2
       3       2       3       3       3       7       4      15      14      16       3
       2       3       1       2       2       2       2       3       1       5       3
       1       3       3       2       2      13       1       2       9      15       3
       3       2       2       1       2       8       1      14      11      13       3
       1       2       1       2       1       8      11       6      12       5       2
       3       3       1       2       2       5       7       4       0      16       3
       1       3       1       2       1       2      15       1       1      10       3
       3       1       1       3       1      14       2      15       2      12       2
       1       1       3       1       3      10      16       7       8       8       3
       2       3       3       3       1       8      16       9       1       5       3
       1       2       2       1       2       6       7      14       0       2       3
       2       2       3       1       3      12       7      15       8       6       2
       2       3       2       3       2       3       8      14       8       9       2
       2       2       2       3       2       8      15       2       8       9       2
       2       1       3       2       3      10       3      16       3      13       3
       3       1       3       2       2       5      16       3       2      11       3
       3       1       1       3       2       3       4      11      15       7       2
       2       1       1       2       1      15       5      16       1       7       2
       2       1       3       2       1       8       0       8      15       2       3
       3       1       2       1       3       2       0      13      13      12       3
       2       1       2       1       2       0      11       4       6       6       2
       2       2       2       3       3       2      14       0       5      13       3
       1       1       1       1       2      13      16       3       2      14       3
       2       2       3       3       3       5      14      14      10       8       3
       1       3       1       3       2       7       5       7       5       7       2
       2       1       3       2       3       3       1      15       6       1       3
       2       1       2       2       2       8      15       5       8       1       3
       3       1       1       3       3       0      15      14      11      13       3
       3       2       2       3       2      14      16      15       6       6       2
       3       2       1       3       2       3       0      16      12      11       3
       1       1       3       3       3       4      10       5       3      14       3
       2       1       3       2       2       7       8       2       1      14       3
       1       3       1       3       3      10      13      10       2      12       2
       1       1       2       1       1       4       1       4       5      16       2
       1       3       1       1       3       2       5       9      13       6       3
       2       1       3       1       3      11      16       6       4      13       2
       2       3       3       2       2       7       6      16       3       4       3
       2       2       2       1       1      14       3       9       3       6       3
       2       3       1       2       2      12       7       7       0      10       2
       1       3       1       3       2      10       0      10      11       0       2
       1       2       2       2       1       9      12       6       7       5       3
       3       2       3       3       1      16       2       4       3      10       2
       1       2       1       1       3      13       4       8       6       7       2
       1       1       2       2       3       6       9       6      10       8       2
       1       1       1       2       3       9       9       4       7      14       2
       1       3       2       3       3      12      11       4      15       3       2
       3       2       2       1       2       3       3       2      12      16       2
       1       2       1       3       2      11      11       7      10      14       2
       1       2       1       3       3       9       7      12      11      12       3
       3       3       1       2       2       7       7      15      11       0       2
       3       3       2       2       3       5       1      16      14       1       2
       1       3       2       3       1       6       1       8       9      12       3
       3       3       2       3       2       2       6       2       2       1       3
       1       1       2       2       3      11       3       7      11      13       2
       3       3       3       2       1      10      14      16       8       5       2
       2       2       2       3       1       2      13       3      10       7       2
       1       1       2       1       1       6      10      16      13       7       2
       2       2       1       2       1       3       9       0       2      11       2
       1       2       1       1       1       9       5       8      10      14       3
       3       2       1       3       1      12      13       6       9       8       3
       3       2       1       2       1       9      11       3       8      15       3
       1       3       3       2       2       2       1      13      10       3       3
       1       2       1       2       1       0      10       2      11       4       3
       2       1       1       3       2      15      16       4       9       5       2
       2       1       1       2       2       2      15       7      12       1       3
       1       1       2       3       2      13       2       9      11      15       2
      89      61      65      49      78
      98     196      98     196      98
     307     222     293     142     346