M+/results-log/S1-5-M+/S1-15-5-3-l-M+.log
CPXPARAM_Read_DataCheck                          1
Found incumbent of value 0.000000 after 0.00 sec. (0.02 ticks)
Tried aggregator 1 time.
MIP Presolve modified 1 coefficients.
Reduced MIP has 116 rows, 505 columns, and 2520 nonzeros.
Reduced MIP has 505 binaries, 0 generals, 0 SOSs, and 0 indicators.
Presolve time = 0.00 sec. (1.04 ticks)
Probing time = 0.00 sec. (0.95 ticks)
Tried aggregator 1 time.
Reduced MIP has 116 rows, 505 columns, and 2520 nonzeros.
Reduced MIP has 505 binaries, 0 generals, 0 SOSs, and 0 indicators.
Presolve time = 0.02 sec. (1.23 ticks)
Probing time = 0.00 sec. (0.94 ticks)
Clique table members: 697.
MIP emphasis: balance optimality and feasibility.
MIP search method: dynamic search.
Parallel mode: deterministic, using up to 4 threads.
Root relaxation solution time = 0.00 sec. (1.19 ticks)

        Nodes                                         Cuts/
   Node  Left     Objective  IInf  Best Integer    Best Bound    ItCnt     Gap

*     0+    0                            0.0000     3145.0000              --- 
      0     0     1439.4450     9        0.0000     1439.4450      183     --- 
      0     0     1091.7137    20        0.0000     Cuts: 132      337     --- 
      0     0     1075.0000     4        0.0000     Cuts: 120      416     --- 
*     0+    0                         1072.0000     1075.0000             0.28%
*     0+    0                         1075.0000     1075.0000             0.00%
      0     0        cutoff           1075.0000     1075.0000      416    0.00%
Elapsed time = 0.03 sec. (21.55 ticks, tree = 0.01 MB, solutions = 3)

Clique cuts applied:  219
Cover cuts applied:  4
Mixed integer rounding cuts applied:  6
Zero-half cuts applied:  2
Gomory fractional cuts applied:  3

Root node processing (before b&c):
  Real time             =    0.03 sec. (21.59 ticks)
Parallel b&c, 4 threads:
  Real time             =    0.00 sec. (0.00 ticks)
  Sync time (average)   =    0.00 sec.
  Wait time (average)   =    0.00 sec.
                          ------------
Total (root+branch&cut) =    0.03 sec. (21.59 ticks)
